; benchmark generated from python API
(set-info :status unknown)
(declare-fun S_1 () Real)
(declare-fun A_0 () Real)
(declare-fun C () Real)
(declare-fun L_0 () Real)
(declare-fun S_4 () Real)
(declare-fun A_1 () Real)
(declare-fun S_5 () Real)
(declare-fun S_3 () Real)
(declare-fun S_0 () Real)
(declare-fun S_2 () Real)
(declare-fun L0 () Real)
(declare-fun B () Real)
(declare-fun A_4 () Real)
(declare-fun A_5 () Real)
(declare-fun A_3 () Real)
(declare-fun A_2 () Real)
(assert
 (let (($x42 (>= L0 0.0)))
 (let (($x909 (>= C 5.0)))
 (let ((?x394 (* (- 1.0) S_1)))
 (let ((?x661 (* (- 1.0) B)))
 (let ((?x605 (* (- 1.0) A_4)))
 (let ((?x1855 (* (- 2.0) C)))
 (let (($x57929 (<= (+ (* (- 3.0) C) A_1 ?x605 ?x661 (* (- 1.0) S_0) S_5) 0.0)))
 (let (($x57194 (<= (+ C A_1 ?x661 (* (- 1.0) A_5) (* (- 1.0) S_3) S_5) 0.0)))
 (let ((?x586 (* (- 1.0) S_4)))
 (let ((?x601 (* (- 1.0) A_5)))
 (let ((?x677 (* 2.0 C)))
 (let (($x50841 (<= (+ C S_3 (* (- 1.0) S_5)) 0.0)))
 (let (($x19603 (<= (+ A_4 (* (- 1.0) L_0) (* (- 1.0) S_5)) 0.0)))
 (let (($x114519 (or $x19603 $x50841 (not (<= 0.0 (+ L_0 B ?x1855 (* (- 1.0) A_1) S_3))))))
 (let (($x54622 (<= (+ ?x1855 (* (- 1.0) A_1) A_4 B S_3 (* (- 1.0) S_5)) 0.0)))
 (let (($x51311 (<= 0.0 (+ L_0 B ?x1855 (* (- 1.0) A_1) S_3))))
 (let (($x58057 (<= (+ (* (- 1.0) C) A_1 ?x605 ?x661 (* (- 1.0) S_2) S_5) 0.0)))
 (let (($x57504 (<= (+ C (* (- 1.0) A_1) A_4 B S_0 (* (- 1.0) S_5)) 0.0)))
 (let (($x49923 (<= (+ (* 3.0 C) S_1 (* (- 1.0) S_5)) 0.0)))
 (let (($x2414 (<= 0.0 (+ L_0 B (* (- 1.0) A_1) S_1))))
 (let (($x114729 (or $x2414 (<= (+ (* (- 1.0) A_1) A_4 B S_1 (* (- 1.0) S_5)) 0.0) $x49923)))
 (let (($x54852 (<= (+ (* (- 1.0) C) A_1 ?x661 ?x601 L_0 (* (- 1.0) A_0) S_5) 0.0)))
 (let ((?x624 (* (- 1.0) S_5)))
 (let ((?x617 (* (- 1.0) A_1)))
 (let ((?x409 (* (- 1.0) C)))
 (let (($x50909 (<= 0.0 (+ ?x409 ?x617 B L_0 S_2))))
 (let (($x50793 (<= (+ ?x677 S_2 ?x624) 0.0)))
 (let (($x54539 (<= 0.0 (+ (* 3.0 C) A_1 ?x605 ?x661))))
 (let (($x112715 (or $x50793 (<= (+ ?x661 ?x677 A_1 (* (- 1.0) L_0) ?x586) 0.0) $x54539)))
 (let (($x50881 (<= (+ (* 4.0 C) S_0 ?x624) 0.0)))
 (let (($x307 (<= 0.0 (+ C B ?x617 L_0 S_0))))
 (let (($x50163 (<= (+ ?x661 C A_1 (* (- 1.0) L_0) (* (- 1.0) S_3)) 0.0)))
 (let (($x109830 (or (<= (+ A_3 (* (- 1.0) L_0) ?x661 (* (- 1.0) S_3)) 0.0) $x50881 (not $x50163))))
 (let (($x50785 (not (<= 0.0 (+ ?x661 (* 3.0 C) S_4 ?x624)))))
 (let (($x28385 (not (<= 0.0 (+ ?x617 A_4 S_4 ?x624)))))
 (let (($x54881 (<= (+ (* (- 3.0) C) A_2 ?x661 ?x601 (* (- 1.0) S_0) S_5) 0.0)))
 (let (($x41 (>= L_0 L0)))
 (let (($x131 (>= S_1 S_0)))
 (let (($x134 (>= S_2 S_1)))
 (let (($x137 (>= S_3 S_2)))
 (let (($x140 (>= S_4 S_3)))
 (let (($x143 (>= S_5 S_4)))
 (let (($x146 (>= A_2 A_1)))
 (let (($x147 (>= A_3 A_2)))
 (let (($x148 (>= A_4 A_3)))
 (let (($x149 (>= A_5 A_4)))
 (and (<= (+ A_0 (* (- 1.0) L_0)) S_4) $x149 $x148 $x147 $x146 $x143 $x140 $x137 $x134 $x131 $x41 (<= (+ (* (- 5.0) C) L_0 (* (- 1.0) A_0) S_5) 0.0) (<= (+ (* (- 6.0) C) (* (- 1.0) S_0) S_5) 0.0) (<= (+ ?x1855 S_1 (* (- 1.0) S_0)) 0.0) (<= (+ (* (- 4.0) C) (* (- 1.0) S_0) S_3) 0.0) (not (<= 0.0 (+ ?x661 C S_4 (* (- 1.0) S_3)))) (<= (+ (* (- 3.0) C) (* (- 1.0) S_2) S_4) 0.0) (<= (+ (* (- 4.0) C) (* (- 1.0) S_2) S_5) 0.0) (not (<= 0.0 (+ ?x661 (* (- 1.0) S_2) S_4))) (<= (+ (* (- 4.0) C) L_0 S_4 (* (- 1.0) A_0)) 0.0) (<= (+ (* (- 5.0) C) S_4 (* (- 1.0) S_0)) 0.0) (not (<= 0.0 (+ ?x661 ?x1855 S_4 (* (- 1.0) S_0)))) (<= (+ (* (- 4.0) C) S_4 ?x394) 0.0) (<= (+ ?x1855 (* (- 1.0) S_2) S_3) 0.0) (<= (+ (* (- 3.0) C) S_2 (* (- 1.0) S_0)) 0.0) (<= (+ ?x1855 L_0 S_2 (* (- 1.0) A_0)) 0.0) (<= (+ ?x1855 S_2 ?x394) 0.0) (or (<= (+ ?x409 A_4 (* (- 1.0) A_3)) 0.0) $x50793) (<= (+ C S_2 ?x586) 0.0) (<= (+ L_0 (* (- 3.0) C) (* (- 1.0) A_0) S_3) 0.0) (<= (+ (* (- 3.0) C) ?x394 S_3) 0.0) (or $x49923 (<= (+ ?x409 A_4 (* (- 1.0) A_3)) 0.0)) (<= (+ (* (- 5.0) C) ?x394 S_5) 0.0) (or (<= (+ ?x409 (* (- 1.0) A_2) A_3) 0.0) $x50793) (or (<= (+ ?x409 A_4 (* (- 1.0) A_3)) 0.0) $x50881) (<= (+ ?x677 ?x586 S_1) 0.0) (not (<= 0.0 (+ ?x661 ?x677))) (or (<= (+ ?x409 A_4 (* (- 1.0) A_3)) 0.0) $x50785) (or (not (<= (+ C (* (- 1.0) A_2) A_1) 0.0)) $x50841) (or $x28385 $x49923) (or (not $x2414) $x19603 $x49923) (not (<= 0.0 (+ ?x661 ?x409 S_4 ?x394))) (not (<= 0.0 (+ L_0 ?x661 ?x409 S_4 (* (- 1.0) A_0)))) (or (<= (+ ?x409 (* (- 1.0) A_2) A_3) 0.0) $x50881) (<= (+ ?x1855 A_2 ?x661 ?x601 L_0 (* (- 1.0) A_0) S_5) 0.0) $x54881 (<= (+ C A_2 ?x661 ?x601 ?x586 S_5) 0.0) (or (not (<= (+ C (* (- 1.0) A_2) A_1) 0.0)) $x50785) (or (not (<= (+ C (* (- 1.0) A_2) A_1) 0.0)) $x50793) (or (<= (+ ?x409 A_2 ?x617) 0.0) $x50881) (<= (+ L_0 ?x601 S_5) 0.0) (<= (+ A_2 ?x661 ?x601 (* (- 1.0) S_3) S_5) 0.0) (<= (+ ?x1855 A_2 ?x661 ?x601 ?x394 S_5) 0.0) (<= (+ ?x409 A_2 ?x661 ?x601 (* (- 1.0) S_2) S_5) 0.0) (or $x28385 $x50785) (or $x19603 $x50793 (not $x50909)) (or (not $x307) $x19603 $x50881) $x109830 (or $x50163 $x50881 $x54539) (or $x307 $x50881 $x54539) (<= (+ ?x409 ?x605 L_0 S_5) 0.0) $x112715 (or $x50793 $x50909 (<= (+ ?x409 ?x617 A_4 B S_2 ?x624) 0.0)) $x54852 $x114729 (<= (+ A_1 ?x661 ?x601 (* (- 1.0) S_2) S_5) 0.0) (or $x19603 (not $x54539) $x57504) $x58057 (or $x50841 $x51311 $x54622) $x114519 (<= (+ ?x1855 A_1 ?x661 ?x601 (* (- 1.0) S_0) S_5) 0.0) (<= (+ ?x409 A_1 ?x661 ?x601 ?x394 S_5) 0.0) (<= (+ ?x677 A_1 ?x661 ?x601 ?x586 S_5) 0.0) $x57194 (<= (+ C A_1 ?x605 ?x661 ?x586 S_5) 0.0) (<= (+ A_1 ?x605 ?x661 (* (- 1.0) S_3) S_5) 0.0) (<= (+ ?x1855 A_1 ?x605 ?x661 L_0 (* (- 1.0) A_0) S_5) 0.0) $x57929 (<= (+ ?x1855 A_1 ?x605 ?x661 ?x394 S_5) 0.0) $x909 $x42 (<= (+ L_0 (* (- 1.0) A_0) S_0) 0.0) (<= (+ C (* (- 1.0) S_2) S_0) 0.0) (<= (+ ?x677 S_0 (* (- 1.0) S_3)) 0.0) (<= (+ (* 3.0 C) ?x586 S_0) 0.0) (<= (+ ?x1855 ?x586 S_5) 0.0) (<= (+ C S_1 (* (- 1.0) S_3)) 0.0) (<= (+ ?x1855 S_4 (* (- 1.0) S_3)) 0.0) (<= (+ (* (- 3.0) C) (* (- 1.0) S_3) S_5) 0.0) (not (>= (+ L_0 ?x617 S_4) 0.0)) (<= (+ L_0 ?x409 (* (- 1.0) A_0) S_1) 0.0)))))))))))))))))))))))))))))))))))))))))))))))))
(check-sat)
